1 13 94 98 34 61 2 37 46 47 31 95 83 50 24 7 86 64 19 53 23 9 91 39 80 18 52 85 73 71 20 26 41 44 45 100 12 33 22 36 55 93 6 21 88 89 78 38 48 8 84 40 75 67 58 72 25 4 56 97 81 17 5 92 70 14 29 65 35 51 3 90 77 63 15 30 27 10 54 62 96 74 82 11 76 57 32 28 59 87 79 68 99 43 49 60 42 69 16 66
